18 6
35 116 67 75 103 64
4 3 4 5 2 5 4 1 4 3 5 4 5 5 2 4 4 2
10 27 17 16 29 21
16 8 5 14 2 17
18 10 7 16 1 18
16 11 7 15 4 16
10 6 6 2 14 11
7 9 5 7 12 8
16 6 10 6 16 16
17 12 8 16 3 18
16 1 6 9 10 17
6 11 7 9 13 6
15 2 6 7 12 16
7 9 8 2 16 8
4 13 11 6 19 5
10 6 6 2 14 11
4 16 14 9 21 4
4 16 12 12 17 4
9 8 8 0 16 10
12 7 9 2 16 13
4 12 8 8 14 5
